c A SAT instance generated from a 3-CNF formula that had 52 clauses and 13 variables
p cnf 13 52
5 -3 9 0
12 -11 -7 0
4 3 -8 0
-6 -2 -12 0
-6 2 12 0
9 5 6 0
-1 10 11 0
-9 -13 -1 0
-4 -9 3 0
11 6 -2 0
-7 11 2 0
-8 2 -10 0
6 -1 -7 0
7 -10 -13 0
2 1 13 0
-9 -1 -7 0
2 4 5 0
1 7 -13 0
-10 -1 -4 0
5 1 8 0
1 -10 5 0
6 10 -2 0
9 5 8 0
1 8 -9 0
11 -9 -4 0
-11 3 -12 0
-13 -3 -11 0
-3 -10 8 0
-12 -9 11 0
2 3 5 0
1 -9 -3 0
4 9 -3 0
10 -9 5 0
-2 7 -11 0
-8 12 -9 0
-3 -5 10 0
13 -12 -1 0
-12 4 -13 0
6 10 -5 0
-9 -10 -13 0
3 8 2 0
-6 -11 -5 0
-3 -8 -10 0
1 4 10 0
-9 -1 -6 0
-13 -6 4 0
-1 9 -5 0
5 -9 -13 0
-11 -10 7 0
-5 -10 -9 0
8 4 9 0
-4 3 -7 0
